Minimize
  - 39 y_0 - 36 y_1 - 44 y_2 - 47 y_3 - 42 y_4 - 41 y_5 - 12 y_6 - 24 y_7
   - 17 y_8 - 65 y_9 - 31 y_10 - 33 y_11 - 54 y_12 - 22 y_13 - 44 y_14
   - 47 y_16 - 53 y_17 - 63 y_18 - 61 y_19 + 775 Constant
Subject To
 c_0: y_16 = 1
 c_1_0: y_0 >= 1
 c_1_1: y_1 + y_2 + y_11 >= 1
 c_1_2: y_1 + y_2 >= 1
 c_1_3: y_3 + y_5 >= 1
 c_1_4: y_4 + y_5 >= 1
 c_1_5: y_3 + y_4 + y_5 >= 1
 c_1_6: y_6 >= 1
 c_1_7: y_7 >= 1
 c_1_8: y_8 >= 1
 c_1_9: y_9 + y_18 + y_19 >= 1
 c_1_10: y_10 >= 1
 c_1_11: y_1 + y_11 >= 1
 c_1_12: y_12 >= 1
 c_1_13: y_13 >= 1
 c_1_14: y_14 >= 1
 c_1_15: y_15 >= 1
 c_1_16: y_16 >= 1
 c_1_17: y_17 >= 1
 c_1_18: y_9 + y_18 + y_19 >= 1
 c_1_19: y_9 + y_18 + y_19 >= 1
Bounds
 Constant = 1
Binaries
 y_0 y_1 y_2 y_3 y_4 y_5 y_6 y_7 y_8 y_9 y_10 y_11 y_12 y_13 y_14 y_15 y_16
 y_17 y_18 y_19
End
